c 2 colouring graph reduction
p cnf 20 60
1 2 0
-1 0
-2 0
-1 -3 0
-2 -4 0
-1 -9 0
-2 -10 0
-1 -11 0
-2 -12 0
3 4 0
-3 0
-4 0
-3 -5 0
-4 -6 0
-3 -13 0
-4 -14 0
5 6 0
-5 0
-6 0
-5 -7 0
-6 -8 0
-5 -15 0
-6 -16 0
7 8 0
-7 0
-8 0
-7 -9 0
-8 -10 0
-7 -17 0
-8 -18 0
9 10 0
-9 0
-10 0
-9 -19 0
-10 -20 0
11 12 0
-11 0
-12 0
-11 -15 0
-12 -16 0
-11 -17 0
-12 -18 0
13 14 0
-13 0
-14 0
-13 -17 0
-14 -18 0
-13 -19 0
-14 -20 0
15 16 0
-15 0
-16 0
-15 -19 0
-16 -20 0
17 18 0
-17 0
-18 0
19 20 0
-19 0
-20 0